(set-info :smt-lib-version 2.6)
(set-logic QF_NRA)
(set-info :source |
These benchmarks used in the paper:

  Dejan Jovanovic and Leonardo de Moura.  Solving Non-Linear Arithmetic.
  In IJCAR 2012, published as LNCS volume 7364, pp. 339--354.

The meti-tarski benchmarks are proof obligations extracted from the
Meti-Tarski project, see:

  B. Akbarpour and L. C. Paulson. MetiTarski: An automatic theorem prover
  for real-valued special functions. Journal of Automated Reasoning,
  44(3):175-205, 2010.

Submitted by Dejan Jovanovic for SMT-LIB.


|)
(set-info :category "industrial")
(set-info :status sat)
(declare-fun skoX () Real)
(declare-fun skoY () Real)
(declare-fun pi () Real)
(assert (let ((?v_0 (* skoY skoY))) (and (not (<= (* skoY (+ (/ 43697163269238834702067824395241620091610776759118139350505303843654936013114796670662198951936 19708317705563036631462656091625738641401586337438359785624745523729198598590531756034664554045605915) (* pi (/ (- 4440960449936097280) 508538630033051135595579)))) (* pi (- 20)))) (and (<= 0 skoY) (and (not (<= (/ 31415927 10000000) pi)) (and (not (<= pi (/ 15707963 5000000))) (and (= ?v_0 (+ 277555600 (* skoX (* skoX (+ 15328072984 (* skoX (* skoX (+ 129098541721 (* skoX (* skoX (+ 21404723599 (* skoX (* skoX (+ 1024027285 (* skoX (* skoX 15132100)))))))))))))))) (= ?v_0 (+ 277555600 (* (/ 265 128) (* (/ 265 128) (+ 15328072984 (* (/ 265 128) (* (/ 265 128) (+ 129098541721 (* (/ 265 128) (* (/ 265 128) (+ 21404723599 (* (/ 265 128) (* (/ 265 128) (+ 1024027285 (* (/ 265 128) (* (/ 265 128) 15132100)))))))))))))))))))))))
(check-sat)
(exit)
